NAME : mtspf.pid3659.gtsp.241592043.tour
COMMENT : Length = 241592043
COMMENT : Found by LKH [Keld Helsgaun] Sat Feb  8 23:34:03 2025
TYPE : TOUR
DIMENSION : 135
TOUR_SECTION
1
84
85
86
87
7
70
71
68
69
114
115
112
113
129
130
131
128
124
125
126
127
10
59
56
57
58
45
46
47
44
2
14
26
27
24
25
96
97
98
99
9
15
50
51
48
49
102
103
100
101
107
104
105
106
93
94
95
92
34
35
32
33
78
79
76
77
91
88
89
90
11
3
5
8
12
22
23
20
21
122
123
120
121
42
43
40
41
4
109
110
111
108
38
39
36
37
65
66
67
64
54
55
52
53
63
60
61
62
19
16
17
18
6
135
132
133
134
72
73
74
75
83
80
81
82
13
28
29
30
31
117
118
119
116
-1
EOF
